
Gurobi 6.5.2 (mac64) logging started Thu Sep 29 08:45:17 2016

No parameters matching 'outputflags' found
Optimize a model with 3 rows, 2 columns and 6 nonzeros
Coefficient statistics:
  Matrix range    [2e-01, 1e+00]
  Objective range [1e+00, 1e+00]
  Bounds range    [0e+00, 0e+00]
  RHS range       [1e+00, 1e+00]
Presolve removed 3 rows and 2 columns
Presolve time: 0.01s
Presolve: All rows and columns removed
Iteration    Objective       Primal Inf.    Dual Inf.      Time
       0   -0.0000000e+00   0.000000e+00   0.000000e+00      0s

Solved in 0 iterations and 0.02 seconds
Optimal objective -0.000000000e+00
Optimize a model with 3 rows, 2 columns and 6 nonzeros
Coefficient statistics:
  Matrix range    [2e-01, 1e+00]
  Objective range [1e+00, 1e+00]
  Bounds range    [0e+00, 0e+00]
  RHS range       [1e+00, 1e+00]
Presolve removed 3 rows and 2 columns
Presolve time: 0.01s
Presolve: All rows and columns removed
Iteration    Objective       Primal Inf.    Dual Inf.      Time
       0   -0.0000000e+00   0.000000e+00   0.000000e+00      0s

Solved in 0 iterations and 0.01 seconds
Optimal objective -0.000000000e+00
Optimize a model with 3 rows, 2 columns and 6 nonzeros
Coefficient statistics:
  Matrix range    [2e-01, 1e+00]
  Objective range [1e+00, 1e+00]
  Bounds range    [0e+00, 0e+00]
  RHS range       [1e+00, 1e+00]
Presolve removed 3 rows and 2 columns
Presolve time: 0.01s
Presolve: All rows and columns removed
Iteration    Objective       Primal Inf.    Dual Inf.      Time
       0   -0.0000000e+00   0.000000e+00   0.000000e+00      0s

Solved in 0 iterations and 0.01 seconds
Optimal objective -0.000000000e+00
Optimize a model with 3 rows, 2 columns and 6 nonzeros
Coefficient statistics:
  Matrix range    [2e-01, 1e+00]
  Objective range [1e+00, 1e+00]
  Bounds range    [0e+00, 0e+00]
  RHS range       [1e+00, 1e+00]
Presolve removed 3 rows and 2 columns
Presolve time: 0.01s
Presolve: All rows and columns removed
Iteration    Objective       Primal Inf.    Dual Inf.      Time
       0   -0.0000000e+00   0.000000e+00   0.000000e+00      0s

Solved in 0 iterations and 0.02 seconds
Optimal objective -0.000000000e+00

Gurobi 6.5.2 (mac64) logging started Thu Sep 29 10:34:39 2016


Gurobi 6.5.2 (mac64) logging started Thu Sep 29 10:41:35 2016


Gurobi 6.5.2 (mac64) logging started Tue Nov  1 13:28:22 2016

Optimize a model with 3 rows, 2 columns and 6 nonzeros
Coefficient statistics:
  Matrix range    [2e-01, 1e+00]
  Objective range [1e+00, 1e+00]
  Bounds range    [0e+00, 0e+00]
  RHS range       [1e+00, 1e+00]
Presolve removed 3 rows and 2 columns
Presolve time: 0.08s
Presolve: All rows and columns removed
Iteration    Objective       Primal Inf.    Dual Inf.      Time
       0   -0.0000000e+00   0.000000e+00   0.000000e+00      0s

Solved in 0 iterations and 0.09 seconds
Optimal objective -0.000000000e+00

Gurobi 6.5.2 (mac64) logging started Tue Nov  1 13:34:11 2016

Optimize a model with 3 rows, 2 columns and 6 nonzeros
Coefficient statistics:
  Matrix range    [2e-01, 1e+00]
  Objective range [1e+00, 1e+00]
  Bounds range    [0e+00, 0e+00]
  RHS range       [1e+00, 1e+00]
Presolve removed 3 rows and 2 columns
Presolve time: 0.01s
Presolve: All rows and columns removed
Iteration    Objective       Primal Inf.    Dual Inf.      Time
       0   -0.0000000e+00   0.000000e+00   0.000000e+00      0s

Solved in 0 iterations and 0.01 seconds
Optimal objective -0.000000000e+00
